
Gurobi 10.0.3 (linux64, gurobi_cl) logging started Thu Nov  9 11:51:25 2023

Set parameter Username
Set parameter TimeLimit to value 3600
Set parameter LogFile to value "RCPSP_1287.log"
Set parameter Threads to value 32
Academic license - for non-commercial use only - expires 2024-10-30
Using license file /home/jrivera6/gurobi-licenses/v1003/compute-0-34/gurobi.lic

Gurobi Optimizer version 10.0.3 build v10.0.3rc0 (linux64)
Copyright (c) 2023, Gurobi Optimization, LLC

Read MPS format model from file RCPSP_1287.mps
Reading time = 0.07 seconds
RCPSP_1287: 42975 rows, 17020 columns, 134609 nonzeros

CPU model: Intel(R) Xeon(R) Gold 6130 CPU @ 2.10GHz, instruction set [SSE2|AVX|AVX2|AVX512]
Thread count: 32 physical cores, 32 logical processors, using up to 32 threads

Optimize a model with 42975 rows, 17020 columns and 134609 nonzeros
Model fingerprint: 0x95be5068
Variable types: 92 continuous, 16928 integer (16928 binary)
Coefficient statistics:
  Matrix range     [1e+00, 5e+02]
  Objective range  [1e+00, 1e+00]
  Bounds range     [1e+00, 1e+00]
  RHS range        [1e+00, 5e+02]
Presolve removed 8852 rows and 1985 columns (presolve time = 5s) ...
Presolve removed 8852 rows and 1985 columns (presolve time = 10s) ...
Presolve removed 13888 rows and 3743 columns
Presolve time: 12.18s
Presolved: 29087 rows, 13277 columns, 94633 nonzeros
Variable types: 91 continuous, 13186 integer (13186 binary)

Root simplex log...

Iteration    Objective       Primal Inf.    Dual Inf.      Time
       0    9.4000000e+01   1.049218e+05   0.000000e+00     13s
    4575    9.4000000e+01   0.000000e+00   0.000000e+00     13s

Root relaxation: objective 9.400000e+01, 4575 iterations, 0.44 seconds (0.06 work units)
Total elapsed time = 15.01s

    Nodes    |    Current Node    |     Objective Bounds      |     Work
 Expl Unexpl |  Obj  Depth IntInf | Incumbent    BestBd   Gap | It/Node Time

     0     0   94.00000    0  260          -   94.00000      -     -   18s
     0     0   99.00000    0  228          -   99.00000      -     -   19s
     0     0  100.87500    0  660          -  100.87500      -     -   70s
     0     0  100.87500    0  699          -  100.87500      -     -   73s
     0     0  100.87500    0  609          -  100.87500      -     -   74s
     0     0  100.87500    0  593          -  100.87500      -     -   75s
     0     0  100.87500    0  728          -  100.87500      -     -   76s
     0     0  100.87500    0  690          -  100.87500      -     -   76s
     0     0  102.03609    0  630          -  102.03609      -     -   87s
     0     0  102.03609    0  624          -  102.03609      -     -   88s
     0     0  102.03609    0  622          -  102.03609      -     -   88s
     0     0  102.03609    0  620          -  102.03609      -     -   89s
     0     0  104.00000    0  699          -  104.00000      -     -   90s
     0     0  105.00000    0  876          -  105.00000      -     -  100s
     0     0  105.00000    0  643          -  105.00000      -     -  102s
H    0     0                     522.0000000  105.00000  79.9%     -  108s
     0     0  105.00000    0  565  522.00000  105.00000  79.9%     -  109s
     0     0  105.00000    0   53  522.00000  105.00000  79.9%     -  152s
H    0     0                     469.0000000  105.00000  77.6%     -  156s
     0     0  105.00000    0  466  469.00000  105.00000  77.6%     -  160s
     0     0  105.00000    0  549  469.00000  105.00000  77.6%     -  171s
H    0     0                     417.0000000  105.00000  74.8%     -  177s
     0     0  105.00000    0   96  417.00000  105.00000  74.8%     -  183s
     0     0  105.00000    0   94  417.00000  105.00000  74.8%     -  183s
H    0     0                     383.0000000  105.00000  72.6%     -  190s
     0     0  105.00000    0   95  383.00000  105.00000  72.6%     -  190s
H    0     0                     372.0000000  105.00000  71.8%     -  194s
     0     0  105.00000    0  119  372.00000  105.00000  71.8%     -  195s
     0     0  105.00000    0  117  372.00000  105.00000  71.8%     -  195s
     0     0  105.00000    0  117  372.00000  105.00000  71.8%     -  196s
     0     0  105.00000    0  301  372.00000  105.00000  71.8%     -  198s
     0     0  105.00000    0  280  372.00000  105.00000  71.8%     -  199s
     0     0  105.00000    0  490  372.00000  105.00000  71.8%     -  201s
     0     0  105.00000    0  480  372.00000  105.00000  71.8%     -  202s
     0     0  105.00000    0  478  372.00000  105.00000  71.8%     -  202s
     0     0  105.00000    0  545  372.00000  105.00000  71.8%     -  202s
     0     0  105.00000    0  543  372.00000  105.00000  71.8%     -  202s
     0     0  105.00000    0   64  372.00000  105.00000  71.8%     -  205s
     0     0  105.00000    0   63  372.00000  105.00000  71.8%     -  206s
     0     0  105.00000    0   65  372.00000  105.00000  71.8%     -  206s
H    0     0                     330.0000000  105.00000  68.2%     -  210s
     0     0  105.00000    0   95  330.00000  105.00000  68.2%     -  210s
     0     0  105.00000    0   55  330.00000  105.00000  68.2%     -  212s
     0     0  105.00000    0   70  330.00000  105.00000  68.2%     -  222s
     0     0  105.00000    0   46  330.00000  105.00000  68.2%     -  225s
     0     0  105.00000    0   93  330.00000  105.00000  68.2%     -  226s
H    0     0                     324.0000000  105.00000  67.6%     -  227s
     0     0  105.00000    0   47  324.00000  105.00000  67.6%     -  230s
     0     0  105.00000    0  147  324.00000  105.00000  67.6%     -  231s
     0     0  105.00000    0   27  324.00000  105.00000  67.6%     -  234s
     0     0  105.00000    0   50  324.00000  105.00000  67.6%     -  234s
     0     0  105.00000    0   38  324.00000  105.00000  67.6%     -  238s
     0     0  105.00000    0   35  324.00000  105.00000  67.6%     -  243s
     0     2  105.00000    0   34  324.00000  105.00000  67.6%     -  252s
     1     4  105.00000    1   34  324.00000  105.00000  67.6%  1099  255s
     3     8  105.00000    2   42  324.00000  105.00000  67.6%   380  262s
     7    16  105.00000    3   64  324.00000  105.00000  67.6%   340  270s
    15    29  105.00000    4   53  324.00000  105.00000  67.6%   251  277s
H   31    48                     303.0000000  105.00000  65.3%   273  371s
H   33    48                     296.0000000  105.00000  64.5%   261  371s
H   41    48                     294.0000000  105.00000  64.3%   251  371s
H   44    48                     276.0000000  105.00000  62.0%   237  371s
    60    77  105.00000    6  142  276.00000  105.00000  62.0%   213  383s
    92   106  105.00000    7  126  276.00000  105.00000  62.0%   215  493s
   124   136  105.00000    8  122  276.00000  105.00000  62.0%   181  501s
   156   164  105.00000    9  122  276.00000  105.00000  62.0%   150  507s
   188   199  105.00000   10   42  276.00000  105.00000  62.0%   136  831s
   233   236  105.00000   11   42  276.00000  105.00000  62.0%   228  952s
   285   278  105.00000   12   41  276.00000  105.00000  62.0%   206 1050s
   338   387  105.00000   13   56  276.00000  105.00000  62.0%   177 1362s
   475   658  105.00000   14   99  276.00000  105.00000  62.0%   156 2101s
   785  1019  105.00000   27  152  276.00000  105.00000  62.0%   123 2502s
   895  1019  105.00000   31  101  276.00000  105.00000  62.0%   114 2507s
H 1236  1049                     264.0000000  105.00000  60.2%   111 3880s
H 1240  1049                     230.0000000  105.00000  54.3%   111 3881s
H 1244  1049                     211.0000000  105.00000  50.2%   111 3881s

Cutting planes:
  Gomory: 8
  Cover: 37
  Implied bound: 159
  MIR: 478
  StrongCG: 10
  RLT: 188
  Relax-and-lift: 195

Explored 1268 nodes (226250 simplex iterations) in 3927.14 seconds (56.35 work units)
Thread count was 32 (of 32 available processors)

Solution count 10: 211 230 264 ... 372

Time limit reached
Best objective 2.110000000000e+02, best bound 1.050000000000e+02, gap 50.2370%

Wrote result file 'RCPSP_1287.sol'

